% Logging successfully configured
%%%mzn-stat: initTime=0.053868617
%%%mzn-stat: objective=470
%%%mzn-stat: nodes=1929
%%%mzn-stat: restarts=0
%%%mzn-stat: peakDepth=1688
%%%mzn-stat: solveTime=0.040229509
%%%mzn-stat: variables=2481
%%%mzn-stat: propagators=6997
%%%mzn-stat: failures=114
%%%mzn-stat: propagations=106664
%%%mzn-stat: nogoods=114
%%%mzn-stat: numAtomicConstraintsPropagated=0
%%%mzn-stat: circuitNumber4951PropagationsThatFoundConflict=64
%%%mzn-stat: circuitNumber4951TotalFixedEdgesAtConflict=6081
%%%mzn-stat: circuitNumber4951NumberOfConflicts=64
%%%mzn-stat: circuitNumber4951PropagationsThatPruned=140
%%%mzn-stat: circuitNumber4951PropagationsTotal=509
%%%mzn-stat: AverageConflictSize=10.096491228070175
%%%mzn-stat: NumUnitNogoodsLearned=0
%%%mzn-stat: AverageLearnedNogoodLength=22.605263157894736
%%%mzn-stat: AverageBacktrackAmount=0
%%%mzn-stat: AverageLbd=17.280701754385966
%%%mzn-stat: 2AutonomousSearchNumBackupCalled=1605
%%%mzn-stat: 2AutonomousSearchNumPredicatesRemoved=0
%%%mzn-stat: 2AutonomousSearchNumCalls=1606
%%%mzn-stat: 2AutonomousSearchNumPredicatesAdded=704
%%%mzn-stat: 2AutonomousSearchAverageSizeOfHeap=0.4383561643835616
%%%mzn-stat: 2AutonomousSearchNumAssignedPredicatesEncountered=704
%%%mzn-stat-end
maxleg = 470;
succ = array1d(1..100,[4, 5, 9, 8, 14, 7, 1, 10, 11, 16, 17, 18, 6, 15, 20, 3, 19, 23, 24, 28, 25, 13, 26, 30, 22, 31, 36, 29, 21, 34, 48, 38, 12, 39, 37, 44, 43, 53, 42, 2, 33, 45, 46, 63, 49, 40, 59, 27, 65, 35, 32, 50, 57, 56, 41, 69, 58, 60, 64, 61, 83, 51, 75, 68, 70, 55, 62, 73, 82, 74, 66, 80, 67, 72, 52, 79, 84, 54, 85, 97, 78, 87, 92, 71, 98, 91, 95, 90, 47, 100, 96, 86, 81, 93, 76, 99, 89, 88, 94, 77]);
% time elapsed: 7.77 s
----------
%%%mzn-stat: initTime=0.053868617
%%%mzn-stat: objective=358
%%%mzn-stat: nodes=3589
%%%mzn-stat: restarts=0
%%%mzn-stat: peakDepth=1688
%%%mzn-stat: solveTime=0.062389636
%%%mzn-stat: variables=2481
%%%mzn-stat: propagators=6997
%%%mzn-stat: failures=150
%%%mzn-stat: propagations=145079
%%%mzn-stat: nogoods=150
%%%mzn-stat: numAtomicConstraintsPropagated=0
%%%mzn-stat: circuitNumber4951PropagationsThatFoundConflict=71
%%%mzn-stat: circuitNumber4951TotalFixedEdgesAtConflict=6740
%%%mzn-stat: circuitNumber4951NumberOfConflicts=71
%%%mzn-stat: circuitNumber4951PropagationsThatPruned=168
%%%mzn-stat: circuitNumber4951PropagationsTotal=676
%%%mzn-stat: AverageConflictSize=10.353333333333333
%%%mzn-stat: NumUnitNogoodsLearned=0
%%%mzn-stat: AverageLearnedNogoodLength=28.166666666666668
%%%mzn-stat: AverageBacktrackAmount=0
%%%mzn-stat: AverageLbd=21.9
%%%mzn-stat: 2AutonomousSearchNumBackupCalled=3123
%%%mzn-stat: 2AutonomousSearchNumPredicatesRemoved=0
%%%mzn-stat: 2AutonomousSearchNumCalls=3125
%%%mzn-stat: 2AutonomousSearchNumPredicatesAdded=1427
%%%mzn-stat: 2AutonomousSearchAverageSizeOfHeap=0.5104
%%%mzn-stat: 2AutonomousSearchNumAssignedPredicatesEncountered=1595
%%%mzn-stat-end
maxleg = 358;
succ = array1d(1..100,[4, 5, 9, 8, 14, 7, 1, 10, 11, 16, 17, 18, 6, 15, 20, 3, 19, 23, 24, 28, 25, 13, 26, 30, 22, 31, 36, 29, 21, 34, 48, 38, 12, 39, 37, 44, 43, 53, 42, 2, 33, 45, 46, 63, 49, 50, 59, 27, 65, 52, 32, 75, 57, 40, 41, 54, 58, 60, 64, 61, 83, 51, 69, 68, 70, 55, 62, 73, 56, 74, 66, 80, 67, 72, 82, 79, 84, 35, 85, 97, 78, 87, 92, 71, 98, 91, 95, 90, 47, 100, 96, 86, 81, 93, 76, 99, 89, 88, 94, 77]);
% time elapsed: 7.80 s
----------
%%%mzn-stat: initTime=0.053868617
%%%mzn-stat: objective=355
%%%mzn-stat: nodes=15490
%%%mzn-stat: restarts=0
%%%mzn-stat: peakDepth=1688
%%%mzn-stat: solveTime=5.28152674
%%%mzn-stat: variables=2481
%%%mzn-stat: propagators=6997
%%%mzn-stat: failures=7241
%%%mzn-stat: propagations=4422321
%%%mzn-stat: nogoods=7241
%%%mzn-stat: numAtomicConstraintsPropagated=0
%%%mzn-stat: circuitNumber4951PropagationsThatFoundConflict=6376
%%%mzn-stat: circuitNumber4951TotalFixedEdgesAtConflict=609077
%%%mzn-stat: circuitNumber4951NumberOfConflicts=6376
%%%mzn-stat: circuitNumber4951PropagationsThatPruned=2896
%%%mzn-stat: circuitNumber4951PropagationsTotal=18897
%%%mzn-stat: AverageConflictSize=69.01270542742715
%%%mzn-stat: NumUnitNogoodsLearned=0
%%%mzn-stat: AverageLearnedNogoodLength=74.6463195691203
%%%mzn-stat: AverageBacktrackAmount=0
%%%mzn-stat: AverageLbd=65.8395249274962
%%%mzn-stat: 2AutonomousSearchNumBackupCalled=4677
%%%mzn-stat: 2AutonomousSearchNumPredicatesRemoved=0
%%%mzn-stat: 2AutonomousSearchNumCalls=4680
%%%mzn-stat: 2AutonomousSearchNumPredicatesAdded=3222
%%%mzn-stat: 2AutonomousSearchAverageSizeOfHeap=0.7452991452991453
%%%mzn-stat: 2AutonomousSearchNumAssignedPredicatesEncountered=3488
%%%mzn-stat-end
maxleg = 355;
succ = array1d(1..100,[4, 5, 9, 8, 15, 7, 1, 10, 11, 16, 17, 18, 6, 2, 20, 3, 19, 23, 24, 28, 14, 13, 26, 30, 21, 22, 25, 29, 35, 34, 36, 38, 12, 39, 37, 27, 43, 44, 42, 54, 33, 45, 46, 48, 49, 50, 59, 31, 65, 52, 32, 75, 57, 56, 41, 69, 58, 60, 64, 61, 83, 51, 53, 68, 70, 55, 62, 73, 63, 74, 66, 80, 77, 97, 95, 79, 84, 82, 85, 93, 40, 87, 92, 71, 98, 91, 67, 90, 72, 100, 96, 86, 81, 78, 76, 99, 89, 88, 94, 47]);
% time elapsed: 13.02 s
----------
%%%mzn-stat: initTime=0.053868617
%%%mzn-stat: objective=337
%%%mzn-stat: nodes=17127
%%%mzn-stat: restarts=0
%%%mzn-stat: peakDepth=1688
%%%mzn-stat: solveTime=5.287331163
%%%mzn-stat: variables=2481
%%%mzn-stat: propagators=6997
%%%mzn-stat: failures=7241
%%%mzn-stat: propagations=4435470
%%%mzn-stat: nogoods=7241
%%%mzn-stat: numAtomicConstraintsPropagated=0
%%%mzn-stat: circuitNumber4951PropagationsThatFoundConflict=6376
%%%mzn-stat: circuitNumber4951TotalFixedEdgesAtConflict=609077
%%%mzn-stat: circuitNumber4951NumberOfConflicts=6376
%%%mzn-stat: circuitNumber4951PropagationsThatPruned=2900
%%%mzn-stat: circuitNumber4951PropagationsTotal=18983
%%%mzn-stat: AverageConflictSize=69.01270542742715
%%%mzn-stat: NumUnitNogoodsLearned=0
%%%mzn-stat: AverageLearnedNogoodLength=74.6463195691203
%%%mzn-stat: AverageBacktrackAmount=0
%%%mzn-stat: AverageLbd=65.8395249274962
%%%mzn-stat: 2AutonomousSearchNumBackupCalled=6232
%%%mzn-stat: 2AutonomousSearchNumPredicatesRemoved=0
%%%mzn-stat: 2AutonomousSearchNumCalls=6236
%%%mzn-stat: 2AutonomousSearchNumPredicatesAdded=3222
%%%mzn-stat: 2AutonomousSearchAverageSizeOfHeap=0.8628928800513149
%%%mzn-stat: 2AutonomousSearchNumAssignedPredicatesEncountered=5381
%%%mzn-stat-end
maxleg = 337;
succ = array1d(1..100,[4, 5, 9, 8, 15, 7, 1, 10, 11, 16, 17, 18, 6, 2, 20, 3, 19, 23, 24, 28, 14, 13, 26, 30, 21, 22, 25, 29, 35, 34, 36, 38, 12, 39, 37, 27, 43, 44, 42, 54, 33, 45, 46, 48, 49, 50, 59, 31, 65, 52, 32, 75, 57, 56, 41, 69, 58, 60, 64, 61, 83, 51, 53, 68, 70, 55, 62, 73, 63, 74, 66, 80, 77, 97, 95, 79, 84, 82, 85, 93, 40, 87, 92, 71, 98, 96, 67, 90, 72, 100, 81, 86, 94, 99, 76, 78, 89, 88, 91, 47]);
% time elapsed: 13.03 s
----------
%%%mzn-stat: initTime=0.053868617
%%%mzn-stat: objective=331
%%%mzn-stat: nodes=18726
%%%mzn-stat: restarts=0
%%%mzn-stat: peakDepth=1688
%%%mzn-stat: solveTime=5.294716968
%%%mzn-stat: variables=2481
%%%mzn-stat: propagators=6997
%%%mzn-stat: failures=7242
%%%mzn-stat: propagations=4448928
%%%mzn-stat: nogoods=7242
%%%mzn-stat: numAtomicConstraintsPropagated=0
%%%mzn-stat: circuitNumber4951PropagationsThatFoundConflict=6376
%%%mzn-stat: circuitNumber4951TotalFixedEdgesAtConflict=609077
%%%mzn-stat: circuitNumber4951NumberOfConflicts=6376
%%%mzn-stat: circuitNumber4951PropagationsThatPruned=2904
%%%mzn-stat: circuitNumber4951PropagationsTotal=19070
%%%mzn-stat: AverageConflictSize=69.00345208505938
%%%mzn-stat: NumUnitNogoodsLearned=0
%%%mzn-stat: AverageLearnedNogoodLength=74.64885390776028
%%%mzn-stat: AverageBacktrackAmount=0
%%%mzn-stat: AverageLbd=65.84175642087821
%%%mzn-stat: 2AutonomousSearchNumBackupCalled=7748
%%%mzn-stat: 2AutonomousSearchNumPredicatesRemoved=0
%%%mzn-stat: 2AutonomousSearchNumCalls=7753
%%%mzn-stat: 2AutonomousSearchNumPredicatesAdded=3364
%%%mzn-stat: 2AutonomousSearchAverageSizeOfHeap=0.9382174642074036
%%%mzn-stat: 2AutonomousSearchNumAssignedPredicatesEncountered=7274
%%%mzn-stat-end
maxleg = 331;
succ = array1d(1..100,[4, 5, 9, 8, 15, 7, 1, 10, 11, 16, 17, 18, 6, 2, 20, 3, 19, 23, 24, 28, 14, 13, 26, 30, 21, 22, 25, 29, 35, 34, 36, 38, 12, 39, 37, 27, 43, 44, 42, 54, 33, 45, 46, 48, 49, 50, 59, 31, 65, 52, 32, 75, 57, 56, 41, 69, 58, 60, 64, 61, 83, 51, 53, 68, 70, 55, 62, 73, 63, 74, 66, 80, 77, 97, 95, 79, 84, 82, 85, 93, 40, 87, 92, 71, 98, 96, 67, 90, 72, 100, 99, 86, 81, 78, 76, 91, 89, 88, 94, 47]);
% time elapsed: 13.04 s
----------
%%%mzn-stat: initTime=0.053868617
%%%mzn-stat: objective=322
%%%mzn-stat: nodes=1345038
%%%mzn-stat: restarts=0
%%%mzn-stat: peakDepth=1688
%%%mzn-stat: solveTime=512.359028511
%%%mzn-stat: variables=2481
%%%mzn-stat: propagators=6997
%%%mzn-stat: failures=815693
%%%mzn-stat: propagations=512990991
%%%mzn-stat: nogoods=815693
%%%mzn-stat: numAtomicConstraintsPropagated=0
%%%mzn-stat: circuitNumber4951PropagationsThatFoundConflict=19624
%%%mzn-stat: circuitNumber4951TotalFixedEdgesAtConflict=1741809
%%%mzn-stat: circuitNumber4951NumberOfConflicts=19624
%%%mzn-stat: circuitNumber4951PropagationsThatPruned=204148
%%%mzn-stat: circuitNumber4951PropagationsTotal=1441122
%%%mzn-stat: AverageConflictSize=19.871040943099917
%%%mzn-stat: NumUnitNogoodsLearned=0
%%%mzn-stat: AverageLearnedNogoodLength=54.55324123168888
%%%mzn-stat: AverageBacktrackAmount=0
%%%mzn-stat: AverageLbd=26.471106163716005
%%%mzn-stat: 2AutonomousSearchNumBackupCalled=9303
%%%mzn-stat: 2AutonomousSearchNumPredicatesRemoved=0
%%%mzn-stat: 2AutonomousSearchNumCalls=9309
%%%mzn-stat: 2AutonomousSearchNumPredicatesAdded=6819
%%%mzn-stat: 2AutonomousSearchAverageSizeOfHeap=1.161778923622301
%%%mzn-stat: 2AutonomousSearchNumAssignedPredicatesEncountered=10815
%%%mzn-stat-end
maxleg = 322;
succ = array1d(1..100,[4, 5, 9, 8, 15, 7, 1, 10, 11, 16, 17, 18, 6, 2, 20, 3, 19, 23, 24, 28, 14, 13, 26, 30, 21, 22, 25, 29, 35, 34, 36, 38, 12, 39, 37, 27, 43, 44, 42, 54, 33, 45, 46, 48, 49, 50, 59, 31, 65, 52, 32, 75, 57, 56, 41, 69, 58, 60, 64, 61, 92, 51, 53, 68, 70, 55, 62, 73, 63, 74, 66, 80, 77, 97, 95, 79, 84, 82, 85, 93, 40, 87, 86, 71, 98, 96, 67, 90, 72, 100, 99, 83, 81, 78, 76, 91, 89, 88, 94, 47]);
% time elapsed: 520.11 s
----------
%%%mzn-stat: initTime=0.053868617
%%%mzn-stat: objective=308
%%%mzn-stat: nodes=2276973
%%%mzn-stat: restarts=0
%%%mzn-stat: peakDepth=1688
%%%mzn-stat: solveTime=876.062745311
%%%mzn-stat: variables=2481
%%%mzn-stat: propagators=6997
%%%mzn-stat: failures=1370619
%%%mzn-stat: propagations=845332294
%%%mzn-stat: nogoods=1370619
%%%mzn-stat: numAtomicConstraintsPropagated=0
%%%mzn-stat: circuitNumber4951PropagationsThatFoundConflict=55430
%%%mzn-stat: circuitNumber4951TotalFixedEdgesAtConflict=5116384
%%%mzn-stat: circuitNumber4951NumberOfConflicts=55430
%%%mzn-stat: circuitNumber4951PropagationsThatPruned=318766
%%%mzn-stat: circuitNumber4951PropagationsTotal=2430196
%%%mzn-stat: AverageConflictSize=21.25531092156172
%%%mzn-stat: NumUnitNogoodsLearned=0
%%%mzn-stat: AverageLearnedNogoodLength=53.250482446252384
%%%mzn-stat: AverageBacktrackAmount=0
%%%mzn-stat: AverageLbd=26.610880923144943
%%%mzn-stat: 2AutonomousSearchNumBackupCalled=10824
%%%mzn-stat: 2AutonomousSearchNumPredicatesRemoved=0
%%%mzn-stat: 2AutonomousSearchNumCalls=10831
%%%mzn-stat: 2AutonomousSearchNumPredicatesAdded=10233
%%%mzn-stat: 2AutonomousSearchAverageSizeOfHeap=1.3285938509832886
%%%mzn-stat: 2AutonomousSearchNumAssignedPredicatesEncountered=14390
%%%mzn-stat-end
maxleg = 308;
succ = array1d(1..100,[4, 5, 9, 8, 15, 13, 1, 10, 11, 16, 17, 18, 7, 2, 20, 3, 19, 23, 24, 28, 14, 6, 26, 30, 21, 22, 25, 29, 35, 34, 36, 38, 12, 39, 37, 27, 43, 44, 42, 54, 33, 45, 46, 48, 49, 50, 59, 31, 65, 52, 32, 75, 57, 56, 41, 69, 58, 60, 64, 61, 92, 51, 53, 68, 70, 55, 62, 73, 63, 74, 66, 80, 77, 97, 95, 79, 84, 82, 85, 93, 40, 87, 86, 71, 98, 96, 67, 90, 72, 100, 99, 83, 81, 78, 76, 91, 89, 88, 94, 47]);
% time elapsed: 883.83 s
----------
%%%mzn-stat: initTime=0.053868617
%%%mzn-stat: objective=304
%%%mzn-stat: nodes=3204240
%%%mzn-stat: restarts=0
%%%mzn-stat: peakDepth=1688
%%%mzn-stat: solveTime=1267.84994574
%%%mzn-stat: variables=2481
%%%mzn-stat: propagators=6997
%%%mzn-stat: failures=1933094
%%%mzn-stat: propagations=1192257239
%%%mzn-stat: nogoods=1933094
%%%mzn-stat: numAtomicConstraintsPropagated=0
%%%mzn-stat: circuitNumber4951PropagationsThatFoundConflict=67212
%%%mzn-stat: circuitNumber4951TotalFixedEdgesAtConflict=6131495
%%%mzn-stat: circuitNumber4951NumberOfConflicts=67212
%%%mzn-stat: circuitNumber4951PropagationsThatPruned=445665
%%%mzn-stat: circuitNumber4951PropagationsTotal=3368086
%%%mzn-stat: AverageConflictSize=20.98774813847645
%%%mzn-stat: NumUnitNogoodsLearned=0
%%%mzn-stat: AverageLearnedNogoodLength=53.32494125996977
%%%mzn-stat: AverageBacktrackAmount=0
%%%mzn-stat: AverageLbd=26.360739829516827
%%%mzn-stat: 2AutonomousSearchNumBackupCalled=12316
%%%mzn-stat: 2AutonomousSearchNumPredicatesRemoved=0
%%%mzn-stat: 2AutonomousSearchNumCalls=12324
%%%mzn-stat: 2AutonomousSearchNumPredicatesAdded=13633
%%%mzn-stat: 2AutonomousSearchAverageSizeOfHeap=1.46137617656605
%%%mzn-stat: 2AutonomousSearchNumAssignedPredicatesEncountered=18010
%%%mzn-stat-end
maxleg = 304;
succ = array1d(1..100,[4, 5, 9, 8, 15, 13, 22, 10, 11, 16, 17, 18, 7, 2, 20, 3, 19, 23, 24, 28, 14, 1, 26, 30, 6, 31, 25, 29, 35, 34, 36, 38, 12, 39, 37, 27, 43, 44, 42, 54, 33, 45, 46, 21, 49, 50, 59, 53, 65, 52, 32, 75, 57, 56, 41, 69, 58, 60, 64, 61, 92, 51, 48, 68, 70, 55, 62, 73, 63, 74, 66, 80, 77, 97, 95, 79, 84, 82, 85, 93, 40, 87, 86, 71, 98, 96, 67, 90, 72, 100, 99, 83, 81, 78, 76, 91, 89, 88, 94, 47]);
% time elapsed: 1275.62 s
----------
%%%mzn-stat: initTime=0.053868617
%%%mzn-stat: objective=303
%%%mzn-stat: nodes=3209226
%%%mzn-stat: restarts=1
%%%mzn-stat: peakDepth=1695
%%%mzn-stat: solveTime=1269.153402464
%%%mzn-stat: variables=2481
%%%mzn-stat: propagators=6997
%%%mzn-stat: failures=1935084
%%%mzn-stat: propagations=1193684166
%%%mzn-stat: nogoods=1935084
%%%mzn-stat: numAtomicConstraintsPropagated=0
%%%mzn-stat: circuitNumber4951PropagationsThatFoundConflict=68964
%%%mzn-stat: circuitNumber4951TotalFixedEdgesAtConflict=6300063
%%%mzn-stat: circuitNumber4951NumberOfConflicts=68964
%%%mzn-stat: circuitNumber4951PropagationsThatPruned=446356
%%%mzn-stat: circuitNumber4951PropagationsTotal=3373304
%%%mzn-stat: AverageConflictSize=21.013554967122875
%%%mzn-stat: NumUnitNogoodsLearned=0
%%%mzn-stat: AverageLearnedNogoodLength=53.31920629802117
%%%mzn-stat: AverageBacktrackAmount=0
%%%mzn-stat: AverageLbd=26.37330369120927
%%%mzn-stat: 2AutonomousSearchNumBackupCalled=13835
%%%mzn-stat: 2AutonomousSearchNumPredicatesRemoved=0
%%%mzn-stat: 2AutonomousSearchNumCalls=14020
%%%mzn-stat: 2AutonomousSearchNumPredicatesAdded=15386
%%%mzn-stat: 2AutonomousSearchAverageSizeOfHeap=33.619686162624824
%%%mzn-stat: 2AutonomousSearchNumAssignedPredicatesEncountered=25298
%%%mzn-stat-end
maxleg = 303;
succ = array1d(1..100,[4, 5, 9, 10, 15, 13, 36, 22, 11, 16, 17, 18, 7, 2, 20, 3, 19, 23, 24, 28, 14, 1, 26, 30, 8, 31, 25, 29, 35, 34, 6, 38, 12, 39, 37, 27, 43, 44, 42, 54, 33, 45, 46, 21, 49, 50, 59, 53, 65, 52, 32, 75, 57, 56, 41, 69, 58, 60, 64, 61, 92, 51, 48, 68, 70, 55, 62, 73, 63, 74, 66, 80, 77, 97, 95, 79, 84, 82, 85, 93, 40, 87, 86, 71, 98, 96, 67, 90, 72, 100, 99, 83, 81, 78, 76, 91, 89, 88, 94, 47]);
% time elapsed: 1276.93 s
----------
%%%mzn-stat: initTime=0.053868617
%%%mzn-stat: objective=296
%%%mzn-stat: nodes=3210816
%%%mzn-stat: restarts=1
%%%mzn-stat: peakDepth=1695
%%%mzn-stat: solveTime=1269.161228041
%%%mzn-stat: variables=2481
%%%mzn-stat: propagators=6997
%%%mzn-stat: failures=1935084
%%%mzn-stat: propagations=1193697385
%%%mzn-stat: nogoods=1935084
%%%mzn-stat: numAtomicConstraintsPropagated=0
%%%mzn-stat: circuitNumber4951PropagationsThatFoundConflict=68964
%%%mzn-stat: circuitNumber4951TotalFixedEdgesAtConflict=6300063
%%%mzn-stat: circuitNumber4951NumberOfConflicts=68964
%%%mzn-stat: circuitNumber4951PropagationsThatPruned=446359
%%%mzn-stat: circuitNumber4951PropagationsTotal=3373388
%%%mzn-stat: AverageConflictSize=21.013554967122875
%%%mzn-stat: NumUnitNogoodsLearned=0
%%%mzn-stat: AverageLearnedNogoodLength=53.31920629802117
%%%mzn-stat: AverageBacktrackAmount=0
%%%mzn-stat: AverageLbd=26.37330369120927
%%%mzn-stat: 2AutonomousSearchNumBackupCalled=15345
%%%mzn-stat: 2AutonomousSearchNumPredicatesRemoved=0
%%%mzn-stat: 2AutonomousSearchNumCalls=15531
%%%mzn-stat: 2AutonomousSearchNumPredicatesAdded=15386
%%%mzn-stat: 2AutonomousSearchAverageSizeOfHeap=30.58347820488056
%%%mzn-stat: 2AutonomousSearchNumAssignedPredicatesEncountered=28942
%%%mzn-stat-end
maxleg = 296;
succ = array1d(1..100,[4, 5, 9, 8, 15, 13, 26, 10, 11, 16, 17, 18, 7, 2, 20, 3, 19, 23, 24, 28, 14, 1, 32, 30, 6, 22, 25, 29, 35, 34, 36, 38, 12, 39, 37, 27, 43, 44, 42, 54, 33, 45, 46, 21, 49, 50, 59, 31, 65, 52, 55, 75, 48, 56, 41, 69, 53, 57, 64, 58, 60, 51, 82, 68, 70, 71, 62, 73, 63, 74, 76, 89, 77, 93, 86, 95, 100, 94, 66, 97, 99, 78, 92, 79, 84, 83, 67, 98, 47, 88, 40, 61, 81, 80, 87, 91, 72, 85, 96, 90]);
% time elapsed: 1276.95 s
----------
%%%mzn-stat: initTime=0.053868617
%%%mzn-stat: objective=295
%%%mzn-stat: nodes=3215296
%%%mzn-stat: restarts=2
%%%mzn-stat: peakDepth=1695
%%%mzn-stat: solveTime=1269.914672283
%%%mzn-stat: variables=2481
%%%mzn-stat: propagators=6997
%%%mzn-stat: failures=1936786
%%%mzn-stat: propagations=1195117280
%%%mzn-stat: nogoods=1936786
%%%mzn-stat: numAtomicConstraintsPropagated=0
%%%mzn-stat: circuitNumber4951PropagationsThatFoundConflict=69116
%%%mzn-stat: circuitNumber4951TotalFixedEdgesAtConflict=6313886
%%%mzn-stat: circuitNumber4951NumberOfConflicts=69116
%%%mzn-stat: circuitNumber4951PropagationsThatPruned=447163
%%%mzn-stat: circuitNumber4951PropagationsTotal=3376593
%%%mzn-stat: AverageConflictSize=21.00668891658655
%%%mzn-stat: NumUnitNogoodsLearned=0
%%%mzn-stat: AverageLearnedNogoodLength=53.3015846872086
%%%mzn-stat: AverageBacktrackAmount=0
%%%mzn-stat: AverageLbd=26.36535218656062
%%%mzn-stat: 2AutonomousSearchNumBackupCalled=16835
%%%mzn-stat: 2AutonomousSearchNumPredicatesRemoved=0
%%%mzn-stat: 2AutonomousSearchNumCalls=17213
%%%mzn-stat: 2AutonomousSearchNumPredicatesAdded=17311
%%%mzn-stat: 2AutonomousSearchAverageSizeOfHeap=54.06436995294254
%%%mzn-stat: 2AutonomousSearchNumAssignedPredicatesEncountered=36242
%%%mzn-stat-end
maxleg = 295;
succ = array1d(1..100,[4, 5, 9, 8, 15, 13, 57, 10, 11, 16, 17, 18, 7, 2, 20, 3, 19, 23, 24, 28, 14, 1, 32, 30, 6, 22, 25, 29, 35, 34, 36, 26, 12, 39, 37, 27, 43, 44, 42, 54, 33, 45, 46, 21, 49, 50, 59, 31, 65, 52, 55, 75, 38, 56, 41, 69, 53, 48, 64, 58, 60, 51, 86, 68, 70, 71, 62, 73, 63, 74, 76, 89, 77, 93, 82, 95, 100, 94, 66, 97, 99, 78, 92, 79, 84, 83, 67, 98, 47, 88, 40, 61, 81, 80, 87, 91, 72, 85, 96, 90]);
% time elapsed: 1277.70 s
----------
%%%mzn-stat: initTime=0.053868617
%%%mzn-stat: objective=292
%%%mzn-stat: nodes=3216945
%%%mzn-stat: restarts=2
%%%mzn-stat: peakDepth=1695
%%%mzn-stat: solveTime=1269.96270318
%%%mzn-stat: variables=2481
%%%mzn-stat: propagators=6997
%%%mzn-stat: failures=1936825
%%%mzn-stat: propagations=1195157806
%%%mzn-stat: nogoods=1936825
%%%mzn-stat: numAtomicConstraintsPropagated=0
%%%mzn-stat: circuitNumber4951PropagationsThatFoundConflict=69149
%%%mzn-stat: circuitNumber4951TotalFixedEdgesAtConflict=6316913
%%%mzn-stat: circuitNumber4951NumberOfConflicts=69149
%%%mzn-stat: circuitNumber4951PropagationsThatPruned=447172
%%%mzn-stat: circuitNumber4951PropagationsTotal=3376788
%%%mzn-stat: AverageConflictSize=21.007761671808243
%%%mzn-stat: NumUnitNogoodsLearned=0
%%%mzn-stat: AverageLearnedNogoodLength=53.301952422134164
%%%mzn-stat: AverageBacktrackAmount=0
%%%mzn-stat: AverageLbd=26.36605940133982
%%%mzn-stat: 2AutonomousSearchNumBackupCalled=18336
%%%mzn-stat: 2AutonomousSearchNumPredicatesRemoved=0
%%%mzn-stat: 2AutonomousSearchNumCalls=18715
%%%mzn-stat: 2AutonomousSearchNumPredicatesAdded=17863
%%%mzn-stat: 2AutonomousSearchAverageSizeOfHeap=49.92327010419449
%%%mzn-stat: 2AutonomousSearchNumAssignedPredicatesEncountered=39946
%%%mzn-stat-end
maxleg = 292;
succ = array1d(1..100,[4, 5, 9, 8, 15, 13, 26, 10, 11, 16, 17, 18, 7, 2, 40, 3, 19, 23, 24, 14, 25, 1, 32, 28, 6, 22, 36, 20, 21, 34, 48, 38, 12, 39, 29, 31, 35, 44, 42, 54, 33, 45, 37, 27, 49, 43, 59, 53, 46, 52, 55, 75, 57, 56, 41, 69, 58, 60, 64, 61, 92, 51, 82, 30, 70, 71, 62, 47, 63, 50, 79, 65, 67, 97, 87, 66, 73, 94, 84, 72, 93, 78, 86, 85, 98, 96, 95, 90, 68, 100, 99, 83, 74, 80, 76, 91, 89, 88, 81, 77]);
% time elapsed: 1277.76 s
----------
%%%mzn-stat: initTime=0.053868617
%%%mzn-stat: objective=291
%%%mzn-stat: nodes=3218675
%%%mzn-stat: restarts=2
%%%mzn-stat: peakDepth=1695
%%%mzn-stat: solveTime=1270.025064024
%%%mzn-stat: variables=2481
%%%mzn-stat: propagators=6997
%%%mzn-stat: failures=1936928
%%%mzn-stat: propagations=1195234009
%%%mzn-stat: nogoods=1936928
%%%mzn-stat: numAtomicConstraintsPropagated=0
%%%mzn-stat: circuitNumber4951PropagationsThatFoundConflict=69184
%%%mzn-stat: circuitNumber4951TotalFixedEdgesAtConflict=6320138
%%%mzn-stat: circuitNumber4951NumberOfConflicts=69184
%%%mzn-stat: circuitNumber4951PropagationsThatPruned=447191
%%%mzn-stat: circuitNumber4951PropagationsTotal=3377044
%%%mzn-stat: AverageConflictSize=21.008162409754004
%%%mzn-stat: NumUnitNogoodsLearned=0
%%%mzn-stat: AverageLearnedNogoodLength=53.300966272365315
%%%mzn-stat: AverageBacktrackAmount=0
%%%mzn-stat: AverageLbd=26.365984177006062
%%%mzn-stat: 2AutonomousSearchNumBackupCalled=19828
%%%mzn-stat: 2AutonomousSearchNumPredicatesRemoved=0
%%%mzn-stat: 2AutonomousSearchNumCalls=20208
%%%mzn-stat: 2AutonomousSearchNumPredicatesAdded=18828
%%%mzn-stat: 2AutonomousSearchAverageSizeOfHeap=46.41854711005542
%%%mzn-stat: 2AutonomousSearchNumAssignedPredicatesEncountered=43658
%%%mzn-stat-end
maxleg = 291;
succ = array1d(1..100,[4, 5, 9, 8, 15, 13, 26, 10, 11, 16, 17, 18, 7, 2, 40, 3, 19, 23, 24, 14, 25, 1, 32, 28, 6, 22, 36, 20, 21, 34, 48, 51, 12, 39, 29, 31, 35, 44, 42, 54, 33, 45, 37, 27, 49, 43, 59, 53, 46, 52, 55, 75, 57, 56, 66, 69, 58, 60, 64, 61, 92, 38, 82, 30, 70, 71, 62, 47, 63, 50, 79, 65, 41, 80, 95, 73, 68, 94, 84, 97, 93, 87, 86, 85, 98, 96, 67, 90, 72, 100, 99, 83, 74, 81, 76, 91, 89, 88, 78, 77]);
% time elapsed: 1277.84 s
----------
%%%mzn-stat: initTime=0.053868617
%%%mzn-stat: objective=281
%%%mzn-stat: nodes=3220194
%%%mzn-stat: restarts=2
%%%mzn-stat: peakDepth=1695
%%%mzn-stat: solveTime=1270.032284964
%%%mzn-stat: variables=2481
%%%mzn-stat: propagators=6997
%%%mzn-stat: failures=1936929
%%%mzn-stat: propagations=1195247335
%%%mzn-stat: nogoods=1936929
%%%mzn-stat: numAtomicConstraintsPropagated=0
%%%mzn-stat: circuitNumber4951PropagationsThatFoundConflict=69184
%%%mzn-stat: circuitNumber4951TotalFixedEdgesAtConflict=6320138
%%%mzn-stat: circuitNumber4951NumberOfConflicts=69184
%%%mzn-stat: circuitNumber4951PropagationsThatPruned=447195
%%%mzn-stat: circuitNumber4951PropagationsTotal=3377124
%%%mzn-stat: AverageConflictSize=21.008155693884493
%%%mzn-stat: NumUnitNogoodsLearned=0
%%%mzn-stat: AverageLearnedNogoodLength=53.30094288432875
%%%mzn-stat: AverageBacktrackAmount=0
%%%mzn-stat: AverageLbd=26.365973146150427
%%%mzn-stat: 2AutonomousSearchNumBackupCalled=21269
%%%mzn-stat: 2AutonomousSearchNumPredicatesRemoved=0
%%%mzn-stat: 2AutonomousSearchNumCalls=21650
%%%mzn-stat: 2AutonomousSearchNumPredicatesAdded=18839
%%%mzn-stat: 2AutonomousSearchAverageSizeOfHeap=43.49829099307159
%%%mzn-stat: 2AutonomousSearchNumAssignedPredicatesEncountered=47370
%%%mzn-stat-end
maxleg = 281;
succ = array1d(1..100,[4, 5, 9, 8, 15, 13, 26, 10, 11, 16, 17, 18, 7, 2, 40, 3, 19, 23, 24, 14, 25, 1, 32, 28, 6, 22, 36, 20, 21, 34, 48, 51, 12, 39, 29, 31, 35, 44, 42, 54, 33, 45, 37, 27, 49, 43, 59, 53, 46, 52, 62, 75, 57, 56, 41, 69, 58, 60, 64, 61, 92, 38, 82, 30, 70, 55, 73, 47, 63, 50, 66, 65, 68, 80, 87, 79, 84, 94, 85, 97, 93, 95, 86, 71, 98, 96, 67, 90, 72, 100, 99, 83, 74, 81, 76, 91, 89, 88, 78, 77]);
% time elapsed: 1277.85 s
----------
%%%mzn-stat: initTime=0.053868617
%%%mzn-stat: objective=278
%%%mzn-stat: nodes=3328808
%%%mzn-stat: restarts=2
%%%mzn-stat: peakDepth=1695
%%%mzn-stat: solveTime=1395.919636652
%%%mzn-stat: variables=2481
%%%mzn-stat: propagators=6997
%%%mzn-stat: failures=2043371
%%%mzn-stat: propagations=1289303149
%%%mzn-stat: nogoods=2043371
%%%mzn-stat: numAtomicConstraintsPropagated=0
%%%mzn-stat: circuitNumber4951PropagationsThatFoundConflict=174593
%%%mzn-stat: circuitNumber4951TotalFixedEdgesAtConflict=16843981
%%%mzn-stat: circuitNumber4951NumberOfConflicts=174593
%%%mzn-stat: circuitNumber4951PropagationsThatPruned=597543
%%%mzn-stat: circuitNumber4951PropagationsTotal=3706407
%%%mzn-stat: AverageConflictSize=24.85880880173008
%%%mzn-stat: NumUnitNogoodsLearned=0
%%%mzn-stat: AverageLearnedNogoodLength=55.5631767309999
%%%mzn-stat: AverageBacktrackAmount=0
%%%mzn-stat: AverageLbd=28.972881576571265
%%%mzn-stat: 2AutonomousSearchNumBackupCalled=22701
%%%mzn-stat: 2AutonomousSearchNumPredicatesRemoved=0
%%%mzn-stat: 2AutonomousSearchNumCalls=23083
%%%mzn-stat: 2AutonomousSearchNumPredicatesAdded=20766
%%%mzn-stat: 2AutonomousSearchAverageSizeOfHeap=40.965905644846856
%%%mzn-stat: 2AutonomousSearchNumAssignedPredicatesEncountered=51248
%%%mzn-stat-end
maxleg = 278;
succ = array1d(1..100,[4, 5, 9, 8, 15, 13, 26, 10, 11, 16, 17, 18, 7, 2, 40, 3, 19, 23, 24, 14, 25, 1, 32, 28, 6, 22, 36, 20, 21, 34, 48, 51, 12, 39, 29, 31, 35, 44, 42, 54, 33, 45, 37, 27, 49, 43, 59, 53, 46, 52, 62, 75, 63, 56, 41, 69, 38, 57, 64, 58, 60, 67, 82, 30, 70, 55, 73, 47, 99, 50, 66, 65, 68, 80, 87, 79, 84, 94, 85, 97, 93, 78, 92, 71, 98, 83, 95, 90, 72, 100, 96, 61, 74, 81, 76, 86, 89, 88, 91, 77]);
% time elapsed: 1403.74 s
----------
%%%mzn-stat: initTime=0.053868617
%%%mzn-stat: objective=271
%%%mzn-stat: nodes=3358258
%%%mzn-stat: restarts=2
%%%mzn-stat: peakDepth=1695
%%%mzn-stat: solveTime=1428.78621298
%%%mzn-stat: variables=2481
%%%mzn-stat: propagators=6997
%%%mzn-stat: failures=2071258
%%%mzn-stat: propagations=1313639343
%%%mzn-stat: nogoods=2071258
%%%mzn-stat: numAtomicConstraintsPropagated=0
%%%mzn-stat: circuitNumber4951PropagationsThatFoundConflict=201748
%%%mzn-stat: circuitNumber4951TotalFixedEdgesAtConflict=19551421
%%%mzn-stat: circuitNumber4951NumberOfConflicts=201748
%%%mzn-stat: circuitNumber4951PropagationsThatPruned=636632
%%%mzn-stat: circuitNumber4951PropagationsTotal=3793143
%%%mzn-stat: AverageConflictSize=25.78410222193469
%%%mzn-stat: NumUnitNogoodsLearned=0
%%%mzn-stat: AverageLearnedNogoodLength=56.16661275418127
%%%mzn-stat: AverageBacktrackAmount=0
%%%mzn-stat: AverageLbd=29.60517328116536
%%%mzn-stat: 2AutonomousSearchNumBackupCalled=24100
%%%mzn-stat: 2AutonomousSearchNumPredicatesRemoved=0
%%%mzn-stat: 2AutonomousSearchNumCalls=24483
%%%mzn-stat: 2AutonomousSearchNumPredicatesAdded=22510
%%%mzn-stat: 2AutonomousSearchAverageSizeOfHeap=38.78201200833231
%%%mzn-stat: 2AutonomousSearchNumAssignedPredicatesEncountered=55132
%%%mzn-stat-end
maxleg = 271;
succ = array1d(1..100,[4, 5, 9, 8, 15, 13, 26, 10, 11, 16, 17, 18, 7, 2, 40, 3, 19, 23, 24, 14, 25, 1, 38, 28, 6, 22, 36, 20, 21, 34, 48, 51, 12, 39, 29, 31, 35, 44, 42, 54, 33, 45, 37, 27, 49, 43, 59, 53, 46, 52, 62, 75, 63, 56, 41, 69, 58, 60, 64, 32, 57, 67, 82, 30, 70, 55, 73, 47, 99, 50, 66, 65, 77, 80, 87, 79, 84, 94, 85, 97, 93, 78, 92, 71, 98, 83, 95, 90, 72, 100, 96, 61, 74, 81, 76, 86, 89, 88, 91, 68]);
% time elapsed: 1436.63 s
----------
%%%mzn-stat: initTime=0.053868617
%%%mzn-stat: objective=271
%%%mzn-stat: nodes=4066350
%%%mzn-stat: restarts=2
%%%mzn-stat: peakDepth=1695
%%%mzn-stat: solveTime=1792.272553069
%%%mzn-stat: variables=2481
%%%mzn-stat: propagators=6997
%%%mzn-stat: failures=2565788
%%%mzn-stat: propagations=1682370387
%%%mzn-stat: nogoods=2565788
%%%mzn-stat: numAtomicConstraintsPropagated=0
%%%mzn-stat: circuitNumber4951PropagationsThatFoundConflict=215482
%%%mzn-stat: circuitNumber4951TotalFixedEdgesAtConflict=20756276
%%%mzn-stat: circuitNumber4951NumberOfConflicts=215482
%%%mzn-stat: circuitNumber4951PropagationsThatPruned=747536
%%%mzn-stat: circuitNumber4951PropagationsTotal=4617319
%%%mzn-stat: AverageConflictSize=25.474160764646182
%%%mzn-stat: NumUnitNogoodsLearned=0
%%%mzn-stat: AverageLearnedNogoodLength=57.81918225512006
%%%mzn-stat: AverageBacktrackAmount=0
%%%mzn-stat: AverageLbd=29.43574488617142
%%%mzn-stat: 2AutonomousSearchNumBackupCalled=24100
%%%mzn-stat: 2AutonomousSearchNumPredicatesRemoved=0
%%%mzn-stat: 2AutonomousSearchNumCalls=24483
%%%mzn-stat: 2AutonomousSearchNumPredicatesAdded=25614
%%%mzn-stat: 2AutonomousSearchAverageSizeOfHeap=38.78201200833231
%%%mzn-stat: 2AutonomousSearchNumAssignedPredicatesEncountered=55132
%%%mzn-stat-end
